p cnf 729 81
-1 0
-10 0
-19 0
-28 0
-37 0
46 0
-55 0
70 0
-73 0
-82 0
-91 0
102 0
114 0
-118 0
-127 0
-136 0
-145 0
-154 0
-163 0
-172 0
188 0
-190 0
-199 0
-208 0
-217 0
-226 0
-235 0
-244 0
-253 0
-262 0
-271 0
287 0
-289 0
299 0
-307 0
-316 0
325 0
-334 0
-343 0
-352 0
-361 0
378 0
-379 0
-388 0
-397 0
-406 0
419 0
-424 0
-433 0
-442 0
-451 0
462 0
-469 0
-478 0
-487 0
-496 0
-505 0
-514 0
525 0
-532 0
546 0
-550 0
-559 0
574 0
585 0
-586 0
599 0
-604 0
-613 0
-622 0
634 0
-640 0
-649 0
-658 0
-667 0
-676 0
-685 0
-694 0
-703 0
-712 0
-721 0
